 
************ ./ins4/instance_real4.lp **************
clingo version 5.7.1
Reading from ./enc/lin_with_dk.lp ...
Solving...
SATISFIABLE

TIME LIMIT   : 1
Models       : 156+
  Optimum    : unknown
Optimization : 457 11 100
Calls        : 1
Time         : 1800.000s (Solving: 1797.65s 1st Model: 0.62s Unsat: 0.00s)
CPU Time     : 1798.064s
clingo version 5.7.1
Reading from ./enc/lin_without_dk.lp ...
Solving...
SATISFIABLE

TIME LIMIT   : 1
Models       : 108+
  Optimum    : unknown
Optimization : 1916 0 79
Calls        : 1
Time         : 1800.000s (Solving: 1797.36s 1st Model: 0.04s Unsat: 0.00s)
CPU Time     : 1798.327s
clingo version 5.7.1
Reading from ./enc/trivial_with_dk.lp ...
Solving...
SATISFIABLE

TIME LIMIT   : 1
Models       : 35+
  Optimum    : unknown
Optimization : 700 0 96
Calls        : 1
Time         : 1800.000s (Solving: 1779.10s 1st Model: 2.82s Unsat: 0.00s)
CPU Time     : 1796.839s
clingo version 5.7.1
Reading from ./enc/trivial_without_dk.lp ...
Solving...
SATISFIABLE

TIME LIMIT   : 1
Models       : 112+
  Optimum    : unknown
Optimization : 1920 0 80
Calls        : 1
Time         : 1800.000s (Solving: 1777.61s 1st Model: 0.53s Unsat: 0.00s)
CPU Time     : 1797.608s
************ ./ins4/instance_real4_c.lp **************
clingo version 5.7.1
Reading from ./enc/lin_with_dk.lp ...
Solving...
SATISFIABLE

TIME LIMIT   : 1
Models       : 65+
  Optimum    : unknown
Optimization : 504 187 100
Calls        : 1
Time         : 1800.000s (Solving: 1797.58s 1st Model: 6.32s Unsat: 0.00s)
CPU Time     : 1798.211s
clingo version 5.7.1
Reading from ./enc/lin_without_dk.lp ...
Solving...
SATISFIABLE

TIME LIMIT   : 1
Models       : 158+
  Optimum    : unknown
Optimization : 776 120 97
Calls        : 1
Time         : 1800.000s (Solving: 1797.37s 1st Model: 0.04s Unsat: 0.00s)
CPU Time     : 1798.417s
clingo version 5.7.1
Reading from ./enc/trivial_with_dk.lp ...
Solving...
SATISFIABLE

TIME LIMIT   : 1
Models       : 21+
  Optimum    : unknown
Optimization : 696 253 98
Calls        : 1
Time         : 1800.000s (Solving: 1778.61s 1st Model: 15.07s Unsat: 0.00s)
CPU Time     : 1798.062s
clingo version 5.7.1
Reading from ./enc/trivial_without_dk.lp ...
Solving...
SATISFIABLE

TIME LIMIT   : 1
Models       : 90+
  Optimum    : unknown
Optimization : 1543 24 77
Calls        : 1
Time         : 1800.000s (Solving: 1777.94s 1st Model: 0.51s Unsat: 0.00s)
CPU Time     : 1798.608s
************ ./ins4/instance_real4_d.lp **************
clingo version 5.7.1
Reading from ./enc/lin_with_dk.lp ...
Solving...
SATISFIABLE

TIME LIMIT   : 1
Models       : 68+
  Optimum    : unknown
Optimization : 1421 0 100
Calls        : 1
Time         : 1800.000s (Solving: 1797.47s 1st Model: 0.12s Unsat: 0.00s)
CPU Time     : 1798.437s
clingo version 5.7.1
Reading from ./enc/lin_without_dk.lp ...
Solving...
SATISFIABLE

TIME LIMIT   : 1
Models       : 125+
  Optimum    : unknown
Optimization : 2338 0 90
Calls        : 1
Time         : 1800.000s (Solving: 1797.12s 1st Model: 0.04s Unsat: 0.00s)
CPU Time     : 1797.305s
clingo version 5.7.1
Reading from ./enc/trivial_with_dk.lp ...
Solving...
SATISFIABLE

TIME LIMIT   : 1
Models       : 16+
  Optimum    : unknown
Optimization : 1541 0 100
Calls        : 1
Time         : 1800.000s (Solving: 1778.97s 1st Model: 7.43s Unsat: 0.00s)
CPU Time     : 1798.565s
clingo version 5.7.1
Reading from ./enc/trivial_without_dk.lp ...
Solving...
SATISFIABLE

TIME LIMIT   : 1
Models       : 96+
  Optimum    : unknown
Optimization : 2607 0 85
Calls        : 1
Time         : 1800.000s (Solving: 1777.93s 1st Model: 0.52s Unsat: 0.00s)
CPU Time     : 1798.000s
************ ./ins4/instance_real4_h.lp **************
clingo version 5.7.1
Reading from ./enc/lin_with_dk.lp ...
Solving...
OPTIMUM FOUND

Models       : 142
  Optimum    : yes
Optimization : 0 61 67
Calls        : 1
Time         : 158.938s (Solving: 156.74s 1st Model: 0.23s Unsat: 3.04s)
CPU Time     : 158.796s
clingo version 5.7.1
Reading from ./enc/lin_without_dk.lp ...
Solving...
OPTIMUM FOUND

Models       : 256
  Optimum    : yes
Optimization : 0 61 67
Calls        : 1
Time         : 827.927s (Solving: 825.55s 1st Model: 0.11s Unsat: 10.27s)
CPU Time     : 827.486s
clingo version 5.7.1
Reading from ./enc/trivial_with_dk.lp ...
Solving...
SATISFIABLE

TIME LIMIT   : 1
Models       : 156+
  Optimum    : unknown
Optimization : 0 65 67
Calls        : 1
Time         : 1800.000s (Solving: 1778.44s 1st Model: 3.30s Unsat: 0.00s)
CPU Time     : 1798.762s
clingo version 5.7.1
Reading from ./enc/trivial_without_dk.lp ...
Solving...
OPTIMUM FOUND

Models       : 359
  Optimum    : yes
Optimization : 0 61 67
Calls        : 1
Time         : 759.275s (Solving: 737.12s 1st Model: 0.56s Unsat: 14.54s)
CPU Time     : 758.689s
************ ./ins4/instance_real4_o.lp **************
clingo version 5.7.1
Reading from ./enc/lin_with_dk.lp ...
Solving...
SATISFIABLE

TIME LIMIT   : 1
Models       : 28+
  Optimum    : unknown
Optimization : 2372 0 100
Calls        : 1
Time         : 1800.000s (Solving: 1797.26s 1st Model: 6.00s Unsat: 0.00s)
CPU Time     : 1797.044s
clingo version 5.7.1
Reading from ./enc/lin_without_dk.lp ...
Solving...
SATISFIABLE

TIME LIMIT   : 1
Models       : 76+
  Optimum    : unknown
Optimization : 3572 29 87
Calls        : 1
Time         : 1800.000s (Solving: 1796.90s 1st Model: 0.05s Unsat: 0.00s)
CPU Time     : 1798.285s
clingo version 5.7.1
Reading from ./enc/trivial_with_dk.lp ...
Solving...
SATISFIABLE

TIME LIMIT   : 1
Models       : 23+
  Optimum    : unknown
Optimization : 2372 0 100
Calls        : 1
Time         : 1800.000s (Solving: 1779.32s 1st Model: 475.59s Unsat: 0.00s)
CPU Time     : 1798.762s
clingo version 5.7.1
Reading from ./enc/trivial_without_dk.lp ...
Solving...
SATISFIABLE

TIME LIMIT   : 1
Models       : 80+
  Optimum    : unknown
Optimization : 3716 0 82
Calls        : 1
Time         : 1800.000s (Solving: 1777.87s 1st Model: 0.54s Unsat: 0.00s)
CPU Time     : 1798.838s
